(declare-fun tobool.not.i.i_7_36 () (_ BitVec 1))
(declare-fun src_reg1.sroa.10.0.copyload_7_34 () (_ BitVec 64))
(declare-fun src_reg_7_19 () (_ BitVec 64))
(declare-fun src_reg1.sroa.22.0.copyload_7_33 () (_ BitVec 64))
(declare-fun src_reg_7_23 () (_ BitVec 64))
(declare-fun src_reg1.sroa.17.0.copyload_7_32 () (_ BitVec 64))
(declare-fun src_reg_7_22 () (_ BitVec 64))
(declare-fun src_reg1.sroa.15.0.copyload_7_31 () (_ BitVec 64))
(declare-fun src_reg_7_21 () (_ BitVec 64))
(declare-fun src_reg1.sroa.13.0.copyload_7_30 () (_ BitVec 64))
(declare-fun src_reg_7_20 () (_ BitVec 64))
(declare-fun src_reg_7_27 () (_ BitVec 8))
(declare-fun src_reg_7_26 () (_ BitVec 32))
(declare-fun src_reg_7_25 () (_ BitVec 32))
(declare-fun src_reg_7_24 () (_ BitVec 32))
(declare-fun src_reg_7_18 () (_ BitVec 64))
(declare-fun src_reg_7_17 () (_ BitVec 32))
(declare-fun src_reg_7_16 () (_ BitVec 32))
(declare-fun src_reg_7_15 () (_ BitVec 32))
(declare-fun src_reg_7_14 () (_ BitVec 32))
(declare-fun dst_reg_7_13 () (_ BitVec 8))
(declare-fun dst_reg_7_12 () (_ BitVec 32))
(declare-fun dst_reg_7_11 () (_ BitVec 32))
(declare-fun dst_reg_7_10 () (_ BitVec 32))
(declare-fun dst_reg_7_9 () (_ BitVec 64))
(declare-fun dst_reg_7_8 () (_ BitVec 64))
(declare-fun dst_reg_7_7 () (_ BitVec 64))
(declare-fun dst_reg_7_6 () (_ BitVec 64))
(declare-fun dst_reg_7_5 () (_ BitVec 64))
(declare-fun dst_reg_7_4 () (_ BitVec 64))
(declare-fun dst_reg_7_3 () (_ BitVec 32))
(declare-fun dst_reg_7_2 () (_ BitVec 32))
(declare-fun dst_reg_7_1 () (_ BitVec 32))
(declare-fun dst_reg_7_0 () (_ BitVec 32))
(declare-fun cmp18.not.i_7_38 () (_ BitVec 1))
(declare-fun cmp16.not.i_7_37 () (_ BitVec 1))
(declare-fun or.cond.not.i_7_39 () (_ BitVec 1))
(declare-fun cmp24.old.i_7_41 () (_ BitVec 1))
(declare-fun cmp21.old.i_7_40 () (_ BitVec 1))
(declare-fun or.cond207.i_7_42 () (_ BitVec 1))
(declare-fun neg.i.i.i_7_68 () (_ BitVec 64))
(declare-fun i9.i353.i_7_65 () (_ BitVec 64))
(declare-fun and4.i.i.i_7_69 () (_ BitVec 64))
(declare-fun i11.i.i_7_66 () (_ BitVec 64))
(declare-fun src_reg_7_125 () (_ BitVec 8))
(declare-fun src_reg_7_97 () (_ BitVec 8))
(declare-fun src_reg_7_124 () (_ BitVec 32))
(declare-fun src_reg_7_96 () (_ BitVec 32))
(declare-fun src_reg_7_123 () (_ BitVec 32))
(declare-fun src_reg_7_95 () (_ BitVec 32))
(declare-fun src_reg_7_122 () (_ BitVec 32))
(declare-fun src_reg_7_94 () (_ BitVec 32))
(declare-fun src_reg_7_121 () (_ BitVec 64))
(declare-fun src_reg_7_93 () (_ BitVec 64))
(declare-fun src_reg_7_120 () (_ BitVec 64))
(declare-fun src_reg_7_92 () (_ BitVec 64))
(declare-fun src_reg_7_119 () (_ BitVec 64))
(declare-fun src_reg_7_91 () (_ BitVec 64))
(declare-fun src_reg_7_118 () (_ BitVec 64))
(declare-fun src_reg_7_90 () (_ BitVec 64))
(declare-fun src_reg_7_117 () (_ BitVec 64))
(declare-fun src_reg_7_89 () (_ BitVec 64))
(declare-fun src_reg_7_116 () (_ BitVec 64))
(declare-fun src_reg_7_88 () (_ BitVec 64))
(declare-fun src_reg_7_115 () (_ BitVec 32))
(declare-fun src_reg_7_87 () (_ BitVec 32))
(declare-fun src_reg_7_114 () (_ BitVec 32))
(declare-fun src_reg_7_86 () (_ BitVec 32))
(declare-fun src_reg_7_113 () (_ BitVec 32))
(declare-fun src_reg_7_85 () (_ BitVec 32))
(declare-fun src_reg_7_112 () (_ BitVec 32))
(declare-fun src_reg_7_84 () (_ BitVec 32))
(declare-fun dst_reg_7_111 () (_ BitVec 8))
(declare-fun dst_reg_7_83 () (_ BitVec 8))
(declare-fun dst_reg_7_110 () (_ BitVec 32))
(declare-fun dst_reg_7_82 () (_ BitVec 32))
(declare-fun dst_reg_7_109 () (_ BitVec 32))
(declare-fun dst_reg_7_81 () (_ BitVec 32))
(declare-fun dst_reg_7_108 () (_ BitVec 32))
(declare-fun dst_reg_7_80 () (_ BitVec 32))
(declare-fun dst_reg_7_107 () (_ BitVec 64))
(declare-fun dst_reg_7_79 () (_ BitVec 64))
(declare-fun dst_reg_7_106 () (_ BitVec 64))
(declare-fun dst_reg_7_78 () (_ BitVec 64))
(declare-fun dst_reg_7_105 () (_ BitVec 64))
(declare-fun dst_reg_7_77 () (_ BitVec 64))
(declare-fun dst_reg_7_104 () (_ BitVec 64))
(declare-fun dst_reg_7_76 () (_ BitVec 64))
(declare-fun dst_reg_7_103 () (_ BitVec 64))
(declare-fun dst_reg_7_75 () (_ BitVec 64))
(declare-fun dst_reg_7_102 () (_ BitVec 64))
(declare-fun dst_reg_7_74 () (_ BitVec 64))
(declare-fun dst_reg_7_101 () (_ BitVec 32))
(declare-fun dst_reg_7_73 () (_ BitVec 32))
(declare-fun dst_reg_7_100 () (_ BitVec 32))
(declare-fun dst_reg_7_72 () (_ BitVec 32))
(declare-fun dst_reg_7_99 () (_ BitVec 32))
(declare-fun dst_reg_7_71 () (_ BitVec 32))
(declare-fun dst_reg_7_98 () (_ BitVec 32))
(declare-fun dst_reg_7_70 () (_ BitVec 32))
(assert (let ((a!1 (or (and (= or.cond207.i_7_42 #b0) (= tobool.not.i.i_7_36 #b0))
               (and (= or.cond.not.i_7_39 #b0) (= tobool.not.i.i_7_36 #b1))))
      (a!2 (or (and (= or.cond207.i_7_42 #b1) (= tobool.not.i.i_7_36 #b0))
               (and (= or.cond.not.i_7_39 #b1) (= tobool.not.i.i_7_36 #b1))))
      (a!3 (and (= #x00000001 src_reg_7_84)
                (= src_reg_7_15 src_reg_7_85)
                (= src_reg_7_16 src_reg_7_86)
                (= src_reg_7_17 src_reg_7_87)
                (= src_reg_7_18 src_reg_7_88)
                (= src_reg_7_19 src_reg_7_89)
                (= src_reg_7_20 src_reg_7_90)
                (= src_reg_7_21 src_reg_7_91)
                (= src_reg_7_22 src_reg_7_92)
                (= src_reg_7_23 src_reg_7_93)
                (= src_reg_7_24 src_reg_7_94)
                (= src_reg_7_25 src_reg_7_95)
                (= src_reg_7_26 src_reg_7_96)
                (= src_reg_7_27 src_reg_7_97)
                (= #x00000001 dst_reg_7_70)
                (= dst_reg_7_1 dst_reg_7_71)
                (= dst_reg_7_2 dst_reg_7_72)
                (= dst_reg_7_3 dst_reg_7_73)
                (= #x0000000000000000 dst_reg_7_74)
                (= #xffffffffffffffff dst_reg_7_75)
                (= #x8000000000000000 dst_reg_7_76)
                (= #x7fffffffffffffff dst_reg_7_77)
                (= #x0000000000000000 dst_reg_7_78)
                (= #xffffffffffffffff dst_reg_7_79)
                (= #x00000000 dst_reg_7_80)
                (= dst_reg_7_11 dst_reg_7_81)
                (= dst_reg_7_12 dst_reg_7_82)
                (= #x01 dst_reg_7_83)))
      (a!7 (=> (= tobool.not.i.i_7_36 #b0)
               (and (ite (bvsgt src_reg1.sroa.13.0.copyload_7_30
                                src_reg1.sroa.15.0.copyload_7_31)
                         (= cmp21.old.i_7_40 #b1)
                         (= cmp21.old.i_7_40 #b0))
                    (ite (bvugt src_reg1.sroa.17.0.copyload_7_32
                                src_reg1.sroa.22.0.copyload_7_33)
                         (= cmp24.old.i_7_41 #b1)
                         (= cmp24.old.i_7_41 #b0))
                    (= or.cond207.i_7_42
                       (bvor cmp21.old.i_7_40 cmp24.old.i_7_41)))))
      (a!8 (=> (= tobool.not.i.i_7_36 #b1)
               (and (ite (distinct src_reg1.sroa.13.0.copyload_7_30
                                   src_reg1.sroa.15.0.copyload_7_31)
                         (= cmp16.not.i_7_37 #b1)
                         (= cmp16.not.i_7_37 #b0))
                    (ite (distinct src_reg1.sroa.17.0.copyload_7_32
                                   src_reg1.sroa.22.0.copyload_7_33)
                         (= cmp18.not.i_7_38 #b1)
                         (= cmp18.not.i_7_38 #b0))
                    (= or.cond.not.i_7_39
                       (bvor cmp16.not.i_7_37 cmp18.not.i_7_38))))))
(let ((a!4 (and (=> a!2 a!3)
                (=> (and (= tobool.not.i.i_7_36 #b1) a!1)
                    (and (= #x00000001 src_reg_7_84)
                         (= src_reg_7_15 src_reg_7_85)
                         (= src_reg_7_16 src_reg_7_86)
                         (= src_reg_7_17 src_reg_7_87)
                         (= src_reg_7_18 src_reg_7_88)
                         (= src_reg_7_19 src_reg_7_89)
                         (= src_reg_7_20 src_reg_7_90)
                         (= src_reg_7_21 src_reg_7_91)
                         (= src_reg_7_22 src_reg_7_92)
                         (= src_reg_7_23 src_reg_7_93)
                         (= src_reg_7_24 src_reg_7_94)
                         (= src_reg_7_25 src_reg_7_95)
                         (= src_reg_7_26 src_reg_7_96)
                         (= src_reg_7_27 src_reg_7_97)
                         (= #x00000001 dst_reg_7_70)
                         (= dst_reg_7_1 dst_reg_7_71)
                         (= dst_reg_7_2 dst_reg_7_72)
                         (= dst_reg_7_3 dst_reg_7_73)
                         (= and4.i.i.i_7_69 dst_reg_7_74)
                         (= i11.i.i_7_66 dst_reg_7_75)
                         (= #x8000000000000000 dst_reg_7_76)
                         (= #x7fffffffffffffff dst_reg_7_77)
                         (= #x0000000000000000 dst_reg_7_78)
                         (= #xffffffffffffffff dst_reg_7_79)
                         (= dst_reg_7_10 dst_reg_7_80)
                         (= dst_reg_7_11 dst_reg_7_81)
                         (= dst_reg_7_12 dst_reg_7_82)
                         (= dst_reg_7_13 dst_reg_7_83)))
                (=> (and (= tobool.not.i.i_7_36 #b0) a!1) a!3)
                (= dst_reg_7_70 dst_reg_7_98)
                (= dst_reg_7_71 dst_reg_7_99)
                (= dst_reg_7_72 dst_reg_7_100)
                (= dst_reg_7_73 dst_reg_7_101)
                (= dst_reg_7_74 dst_reg_7_102)
                (= dst_reg_7_75 dst_reg_7_103)
                (= dst_reg_7_76 dst_reg_7_104)
                (= dst_reg_7_77 dst_reg_7_105)
                (= dst_reg_7_78 dst_reg_7_106)
                (= dst_reg_7_79 dst_reg_7_107)
                (= dst_reg_7_80 dst_reg_7_108)
                (= dst_reg_7_81 dst_reg_7_109)
                (= dst_reg_7_82 dst_reg_7_110)
                (= dst_reg_7_83 dst_reg_7_111)
                (= src_reg_7_84 src_reg_7_112)
                (= src_reg_7_85 src_reg_7_113)
                (= src_reg_7_86 src_reg_7_114)
                (= src_reg_7_87 src_reg_7_115)
                (= src_reg_7_88 src_reg_7_116)
                (= src_reg_7_89 src_reg_7_117)
                (= src_reg_7_90 src_reg_7_118)
                (= src_reg_7_91 src_reg_7_119)
                (= src_reg_7_92 src_reg_7_120)
                (= src_reg_7_93 src_reg_7_121)
                (= src_reg_7_94 src_reg_7_122)
                (= src_reg_7_95 src_reg_7_123)
                (= src_reg_7_96 src_reg_7_124)
                (= src_reg_7_97 src_reg_7_125)))
      (a!6 (=> (and (= tobool.not.i.i_7_36 #b1) a!1)
               (and (= #x0000000000000000 i9.i353.i_7_65)
                    (= #xffffffffffffffff i11.i.i_7_66)
                    (= neg.i.i.i_7_68 (bvxor i11.i.i_7_66 #xffffffffffffffff))
                    (= and4.i.i.i_7_69 (bvand i9.i353.i_7_65 neg.i.i.i_7_68))))))
(let ((a!5 (=> (or (and (= tobool.not.i.i_7_36 #b1) a!1)
                   (and (= tobool.not.i.i_7_36 #b0) a!1)
                   a!2)
               a!4)))
  (and a!5
       a!6
       a!7
       a!8
       (= dst_reg_7_0 dst_reg_7_0)
       (= dst_reg_7_1 dst_reg_7_1)
       (= dst_reg_7_2 dst_reg_7_2)
       (= dst_reg_7_3 dst_reg_7_3)
       (= dst_reg_7_4 dst_reg_7_4)
       (= dst_reg_7_5 dst_reg_7_5)
       (= dst_reg_7_6 dst_reg_7_6)
       (= dst_reg_7_7 dst_reg_7_7)
       (= dst_reg_7_8 dst_reg_7_8)
       (= dst_reg_7_9 dst_reg_7_9)
       (= dst_reg_7_10 dst_reg_7_10)
       (= dst_reg_7_11 dst_reg_7_11)
       (= dst_reg_7_12 dst_reg_7_12)
       (= dst_reg_7_13 dst_reg_7_13)
       (= src_reg_7_14 src_reg_7_14)
       (= src_reg_7_15 src_reg_7_15)
       (= src_reg_7_16 src_reg_7_16)
       (= src_reg_7_17 src_reg_7_17)
       (= src_reg_7_18 src_reg_7_18)
       (= src_reg_7_19 src_reg_7_19)
       (= src_reg_7_20 src_reg_7_20)
       (= src_reg_7_21 src_reg_7_21)
       (= src_reg_7_22 src_reg_7_22)
       (= src_reg_7_23 src_reg_7_23)
       (= src_reg_7_24 src_reg_7_24)
       (= src_reg_7_25 src_reg_7_25)
       (= src_reg_7_26 src_reg_7_26)
       (= src_reg_7_27 src_reg_7_27)
       (= src_reg_7_20 src_reg1.sroa.13.0.copyload_7_30)
       (= src_reg_7_21 src_reg1.sroa.15.0.copyload_7_31)
       (= src_reg_7_22 src_reg1.sroa.17.0.copyload_7_32)
       (= src_reg_7_23 src_reg1.sroa.22.0.copyload_7_33)
       (= src_reg_7_19 src_reg1.sroa.10.0.copyload_7_34)
       (ite (= src_reg1.sroa.10.0.copyload_7_34 #x0000000000000000)
            (= tobool.not.i.i_7_36 #b1)
            (= tobool.not.i.i_7_36 #b0)))))))

;{"dst_reg":["dst_reg_7_0",[""],"dst_reg_7_1","dst_reg_7_2","dst_reg_7_3",["dst_reg_7_4","dst_reg_7_5"],"dst_reg_7_6","dst_reg_7_7","dst_reg_7_8","dst_reg_7_9","","","dst_reg_7_10","dst_reg_7_11","dst_reg_7_12"],"src_reg":["src_reg_7_14",[""],"src_reg_7_15","src_reg_7_16","src_reg_7_17",["src_reg_7_18","src_reg_7_19"],"src_reg_7_20","src_reg_7_21","src_reg_7_22","src_reg_7_23","","","src_reg_7_24","src_reg_7_25","src_reg_7_26"]}
;{"dst_reg":["dst_reg_7_98",[""],"dst_reg_7_99","dst_reg_7_100","dst_reg_7_101",["dst_reg_7_102","dst_reg_7_103"],"dst_reg_7_104","dst_reg_7_105","dst_reg_7_106","dst_reg_7_107","","","dst_reg_7_108","dst_reg_7_109","dst_reg_7_110"],"src_reg":["src_reg_7_112",[""],"src_reg_7_113","src_reg_7_114","src_reg_7_115",["src_reg_7_116","src_reg_7_117"],"src_reg_7_118","src_reg_7_119","src_reg_7_120","src_reg_7_121","","","src_reg_7_122","src_reg_7_123","src_reg_7_124"]}
